\Problem name: compact

Minimize
OBJROW: C
Subject To
ord(0,1):  x(0,1) - x(0,2) >= 6
ord(0,2):  x(0,0) - x(0,1) >= 1
ord(1,1):  - x(1,0) + x(1,2) >= 4
ord(1,2):  x(1,1) - x(1,2) >= 9
ord(2,1):  - x(2,0) + x(2,2) >= 4
ord(2,2):  x(2,1) - x(2,2) >= 2
triangle2(0,1,0):  y(0,1,0) + y(1,0,0) = 1
triangle2(0,1,1):  y(0,1,1) + y(1,0,1) = 1
triangle2(0,1,2):  y(0,1,2) + y(1,0,2) = 1
triangle2(0,2,0):  y(0,2,0) + y(2,0,0) = 1
triangle2(0,2,1):  y(0,2,1) + y(2,0,1) = 1
triangle2(0,2,2):  y(0,2,2) + y(2,0,2) = 1
triangle2(1,2,0):  y(1,2,0) + y(2,1,0) = 1
triangle2(1,2,1):  y(1,2,1) + y(2,1,1) = 1
triangle2(1,2,2):  y(1,2,2) + y(2,1,2) = 1
MCLinV(0,1,0):  x(0,0) - v(0,1,0) - x(1,0) = 4
MCLinV(1,0,0):  - x(0,0) - v(1,0,0) + x(1,0) = 1
MCLin1(0,1,0):  u(0,1,0) >= -0
MCLin2(0,1,0):  -13 y(1,0,0) - u(0,1,0) <= -0
MCLin3(0,1,0):  32 y(1,0,0) + v(0,1,0) - u(0,1,0) <= 32
MCLin4(0,1,0):  32 y(1,0,0) - u(0,1,0) >= -0
MCLin5(0,1,0):  -13 y(1,0,0) + v(0,1,0) - u(0,1,0) >= -13
MCLin6(1,0,0):  u(1,0,0) >= -0
MCLin7(1,0,0):  -37 y(0,1,0) - u(1,0,0) <= -0
MCLin8(1,0,0):  8 y(0,1,0) + v(1,0,0) - u(1,0,0) <= 8
MCLin9(1,0,0):  8 y(0,1,0) - u(1,0,0) >= -0
MCLin10(1,0,0):  -37 y(0,1,0) + v(1,0,0) - u(1,0,0) >= -37
MCLinV(0,1,1):  x(0,1) - v(0,1,1) - x(1,1) = 8
MCLinV(1,0,1):  - x(0,1) - v(1,0,1) + x(1,1) = 1
MCLin1(0,1,1):  u(0,1,1) >= -0
MCLin2(0,1,1):  -31 y(1,0,1) - u(0,1,1) <= -0
MCLin3(0,1,1):  14 y(1,0,1) + v(0,1,1) - u(0,1,1) <= 14
MCLin4(0,1,1):  14 y(1,0,1) - u(0,1,1) >= -0
MCLin5(0,1,1):  -31 y(1,0,1) + v(0,1,1) - u(0,1,1) >= -31
MCLin6(1,0,1):  u(1,0,1) >= -0
MCLin7(1,0,1):  -23 y(0,1,1) - u(1,0,1) <= -0
MCLin8(1,0,1):  22 y(0,1,1) + v(1,0,1) - u(1,0,1) <= 22
MCLin9(1,0,1):  22 y(0,1,1) - u(1,0,1) >= -0
MCLin10(1,0,1):  -23 y(0,1,1) + v(1,0,1) - u(1,0,1) >= -23
MCLinV(0,1,2):  x(0,2) - v(0,1,2) - x(1,2) = 9
MCLinV(1,0,2):  - x(0,2) - v(1,0,2) + x(1,2) = 6
MCLin1(0,1,2):  u(0,1,2) >= -0
MCLin2(0,1,2):  -29 y(1,0,2) - u(0,1,2) <= -0
MCLin3(0,1,2):  16 y(1,0,2) + v(0,1,2) - u(0,1,2) <= 16
MCLin4(0,1,2):  16 y(1,0,2) - u(0,1,2) >= -0
MCLin5(0,1,2):  -29 y(1,0,2) + v(0,1,2) - u(0,1,2) >= -29
MCLin6(1,0,2):  u(1,0,2) >= -0
MCLin7(1,0,2):  -31 y(0,1,2) - u(1,0,2) <= -0
MCLin8(1,0,2):  14 y(0,1,2) + v(1,0,2) - u(1,0,2) <= 14
MCLin9(1,0,2):  14 y(0,1,2) - u(1,0,2) >= -0
MCLin10(1,0,2):  -31 y(0,1,2) + v(1,0,2) - u(1,0,2) >= -31
MCLinV(0,2,0):  x(0,0) - v(0,2,0) - x(2,0) = 4
MCLinV(2,0,0):  - x(0,0) - v(2,0,0) + x(2,0) = 1
MCLin1(0,2,0):  u(0,2,0) >= -0
MCLin2(0,2,0):  -26 y(2,0,0) - u(0,2,0) <= -0
MCLin3(0,2,0):  32 y(2,0,0) + v(0,2,0) - u(0,2,0) <= 32
MCLin4(0,2,0):  32 y(2,0,0) - u(0,2,0) >= -0
MCLin5(0,2,0):  -26 y(2,0,0) + v(0,2,0) - u(0,2,0) >= -26
MCLin6(2,0,0):  u(2,0,0) >= -0
MCLin7(2,0,0):  -37 y(0,2,0) - u(2,0,0) <= -0
MCLin8(2,0,0):  21 y(0,2,0) + v(2,0,0) - u(2,0,0) <= 21
MCLin9(2,0,0):  21 y(0,2,0) - u(2,0,0) >= -0
MCLin10(2,0,0):  -37 y(0,2,0) + v(2,0,0) - u(2,0,0) >= -37
MCLinV(0,2,1):  x(0,1) - v(0,2,1) - x(2,1) = 2
MCLinV(2,0,1):  - x(0,1) - v(2,0,1) + x(2,1) = 1
MCLin1(0,2,1):  u(0,2,1) >= -0
MCLin2(0,2,1):  -31 y(2,0,1) - u(0,2,1) <= -0
MCLin3(0,2,1):  27 y(2,0,1) + v(0,2,1) - u(0,2,1) <= 27
MCLin4(0,2,1):  27 y(2,0,1) - u(0,2,1) >= -0
MCLin5(0,2,1):  -31 y(2,0,1) + v(0,2,1) - u(0,2,1) >= -31
MCLin6(2,0,1):  u(2,0,1) >= -0
MCLin7(2,0,1):  -30 y(0,2,1) - u(2,0,1) <= -0
MCLin8(2,0,1):  28 y(0,2,1) + v(2,0,1) - u(2,0,1) <= 28
MCLin9(2,0,1):  28 y(0,2,1) - u(2,0,1) >= -0
MCLin10(2,0,1):  -30 y(0,2,1) + v(2,0,1) - u(2,0,1) >= -30
MCLinV(0,2,2):  x(0,2) - v(0,2,2) - x(2,2) = 2
MCLinV(2,0,2):  - x(0,2) - v(2,0,2) + x(2,2) = 6
MCLin1(0,2,2):  u(0,2,2) >= -0
MCLin2(0,2,2):  -35 y(2,0,2) - u(0,2,2) <= -0
MCLin3(0,2,2):  23 y(2,0,2) + v(0,2,2) - u(0,2,2) <= 23
MCLin4(0,2,2):  23 y(2,0,2) - u(0,2,2) >= -0
MCLin5(0,2,2):  -35 y(2,0,2) + v(0,2,2) - u(0,2,2) >= -35
MCLin6(2,0,2):  u(2,0,2) >= -0
MCLin7(2,0,2):  -31 y(0,2,2) - u(2,0,2) <= -0
MCLin8(2,0,2):  27 y(0,2,2) + v(2,0,2) - u(2,0,2) <= 27
MCLin9(2,0,2):  27 y(0,2,2) - u(2,0,2) >= -0
MCLin10(2,0,2):  -31 y(0,2,2) + v(2,0,2) - u(2,0,2) >= -31
MCLinV(1,2,0):  x(1,0) - v(1,2,0) - x(2,0) = 4
MCLinV(2,1,0):  - x(1,0) - v(2,1,0) + x(2,0) = 4
MCLin1(1,2,0):  u(1,2,0) >= -0
MCLin2(1,2,0):  -33 y(2,1,0) - u(1,2,0) <= -0
MCLin3(1,2,0):  12 y(2,1,0) + v(1,2,0) - u(1,2,0) <= 12
MCLin4(1,2,0):  12 y(2,1,0) - u(1,2,0) >= -0
MCLin5(1,2,0):  -33 y(2,1,0) + v(1,2,0) - u(1,2,0) >= -33
MCLin6(2,1,0):  u(2,1,0) >= -0
MCLin7(2,1,0):  -20 y(1,2,0) - u(2,1,0) <= -0
MCLin8(2,1,0):  25 y(1,2,0) + v(2,1,0) - u(2,1,0) <= 25
MCLin9(2,1,0):  25 y(1,2,0) - u(2,1,0) >= -0
MCLin10(2,1,0):  -20 y(1,2,0) + v(2,1,0) - u(2,1,0) >= -20
MCLinV(1,2,1):  x(1,1) - v(1,2,1) - x(2,1) = 2
MCLinV(2,1,1):  - x(1,1) - v(2,1,1) + x(2,1) = 8
MCLin1(1,2,1):  u(1,2,1) >= -0
MCLin2(1,2,1):  -24 y(2,1,1) - u(1,2,1) <= -0
MCLin3(1,2,1):  21 y(2,1,1) + v(1,2,1) - u(1,2,1) <= 21
MCLin4(1,2,1):  21 y(2,1,1) - u(1,2,1) >= -0
MCLin5(1,2,1):  -24 y(2,1,1) + v(1,2,1) - u(1,2,1) >= -24
MCLin6(2,1,1):  u(2,1,1) >= -0
MCLin7(2,1,1):  -31 y(1,2,1) - u(2,1,1) <= -0
MCLin8(2,1,1):  14 y(1,2,1) + v(2,1,1) - u(2,1,1) <= 14
MCLin9(2,1,1):  14 y(1,2,1) - u(2,1,1) >= -0
MCLin10(2,1,1):  -31 y(1,2,1) + v(2,1,1) - u(2,1,1) >= -31
MCLinV(1,2,2):  x(1,2) - v(1,2,2) - x(2,2) = 2
MCLinV(2,1,2):  - x(1,2) - v(2,1,2) + x(2,2) = 9
MCLin1(1,2,2):  u(1,2,2) >= -0
MCLin2(1,2,2):  -31 y(2,1,2) - u(1,2,2) <= -0
MCLin3(1,2,2):  14 y(2,1,2) + v(1,2,2) - u(1,2,2) <= 14
MCLin4(1,2,2):  14 y(2,1,2) - u(1,2,2) >= -0
MCLin5(1,2,2):  -31 y(2,1,2) + v(1,2,2) - u(1,2,2) >= -31
MCLin6(2,1,2):  u(2,1,2) >= -0
MCLin7(2,1,2):  -25 y(1,2,2) - u(2,1,2) <= -0
MCLin8(2,1,2):  20 y(1,2,2) + v(2,1,2) - u(2,1,2) <= 20
MCLin9(2,1,2):  20 y(1,2,2) - u(2,1,2) >= -0
MCLin10(2,1,2):  -25 y(1,2,2) + v(2,1,2) - u(2,1,2) >= -25
makespan(0):  C - x(0,0) >= 1
makespan(1):  C - x(1,1) >= 8
makespan(2):  C - x(2,1) >= 2
Bounds
 0 <= C <= 37
 7 <= x(0,0) <= 36
 0 <= y(0,1,0) <= 1
 0 <= y(1,0,0) <= 1
 -13 <= v(0,1,0) <= 32
 -37 <= v(1,0,0) <= 8
 -370 <= u(0,1,0)
 -370 <= u(1,0,0)
 0 <= y(0,2,0) <= 1
 0 <= y(2,0,0) <= 1
 -26 <= v(0,2,0) <= 32
 -37 <= v(2,0,0) <= 21
 -370 <= u(0,2,0)
 -370 <= u(2,0,0)
 0 <= x(1,0) <= 16
 0 <= y(1,2,0) <= 1
 0 <= y(2,1,0) <= 1
 -33 <= v(1,2,0) <= 12
 -20 <= v(2,1,0) <= 25
 -370 <= u(1,2,0)
 -370 <= u(2,1,0)
 0 <= x(2,0) <= 29
 6 <= x(0,1) <= 35
 0 <= y(0,1,1) <= 1
 0 <= y(1,0,1) <= 1
 -31 <= v(0,1,1) <= 14
 -23 <= v(1,0,1) <= 22
 -370 <= u(0,1,1)
 -370 <= u(1,0,1)
 0 <= y(0,2,1) <= 1
 0 <= y(2,0,1) <= 1
 -31 <= v(0,2,1) <= 27
 -30 <= v(2,0,1) <= 28
 -370 <= u(0,2,1)
 -370 <= u(2,0,1)
 13 <= x(1,1) <= 29
 0 <= y(1,2,1) <= 1
 0 <= y(2,1,1) <= 1
 -24 <= v(1,2,1) <= 21
 -31 <= v(2,1,1) <= 14
 -370 <= u(1,2,1)
 -370 <= u(2,1,1)
 6 <= x(2,1) <= 35
 0 <= x(0,2) <= 29
 0 <= y(0,1,2) <= 1
 0 <= y(1,0,2) <= 1
 -29 <= v(0,1,2) <= 16
 -31 <= v(1,0,2) <= 14
 -370 <= u(0,1,2)
 -370 <= u(1,0,2)
 0 <= y(0,2,2) <= 1
 0 <= y(2,0,2) <= 1
 -35 <= v(0,2,2) <= 23
 -31 <= v(2,0,2) <= 27
 -370 <= u(0,2,2)
 -370 <= u(2,0,2)
 4 <= x(1,2) <= 20
 0 <= y(1,2,2) <= 1
 0 <= y(2,1,2) <= 1
 -31 <= v(1,2,2) <= 14
 -25 <= v(2,1,2) <= 20
 -370 <= u(1,2,2)
 -370 <= u(2,1,2)
 4 <= x(2,2) <= 33
Integers
C x(0,0) y(0,1,0) y(1,0,0) v(0,1,0) v(1,0,0) u(0,1,0) u(1,0,0) y(0,2,0) y(2,0,0) 
v(0,2,0) v(2,0,0) u(0,2,0) u(2,0,0) x(1,0) y(1,2,0) y(2,1,0) v(1,2,0) v(2,1,0) u(1,2,0) 
u(2,1,0) x(2,0) x(0,1) y(0,1,1) y(1,0,1) v(0,1,1) v(1,0,1) u(0,1,1) u(1,0,1) y(0,2,1) 
y(2,0,1) v(0,2,1) v(2,0,1) u(0,2,1) u(2,0,1) x(1,1) y(1,2,1) y(2,1,1) v(1,2,1) v(2,1,1) 
u(1,2,1) u(2,1,1) x(2,1) x(0,2) y(0,1,2) y(1,0,2) v(0,1,2) v(1,0,2) u(0,1,2) u(1,0,2) 
y(0,2,2) y(2,0,2) v(0,2,2) v(2,0,2) u(0,2,2) u(2,0,2) x(1,2) y(1,2,2) y(2,1,2) v(1,2,2) 
v(2,1,2) u(1,2,2) u(2,1,2) x(2,2) 
End
